set P :=
1 2 3 4 5 6 7 8 9 10 11 12 13 14 15 16 17 18 19 20 21 22 23 24 25 26 27 28 29 30 31 32 33 34 35 36 37 38 39 40 41 42 43 44 45 46 47 48 49 50 51 52 53 54 55 56 57 58 59 60 61 62 63 64 65 66 67 68 69 70 71 72 73 74 75 76 77 78 79 80 81 82 83 84 85 86 87 88 89 90 91 92 93 94 95 96 97 98 99 100 101 102 103 104 105 106 107 108 109 110 111 112 113 114 115 116 117 118 119 120 121 122 123 124 125 126 127 128 129 130 131 132 133 134 135 136 137 138 139 140 141 142 143 144 145 146 147 148 149 150 151 152 153 154 155 156 157 158 159 160 161 162 163 164 165 166 167 168 169 170 171 172 173 174 175 176 177 178 179 180 181 182 183 184 185 186 187 188 189 190 191 192 193 194 195 196 197 198 199 200 201 202 203 204 205 206 207 208 209 210 211 212 213 214 215 216 217 218 219 220 221 222 223 224 225 226 227 228 229 230 231 232 233 234 235 236 237 238 239 240 241 242 243 244 245 246 247 248 249 250 251 252 253 254 255 256 257 258 259 260 261 262 263 264 265 266 267 268 269 270 271 272 273 274 275 276 277 278 279 280 281 282 283 284 285 286 287 288 289 290 291 292 293 294 295 296 297 298 299 300 301 302 303 304 305 306 307 308 309 310 311 312 313 314 315 316 317 318 319 320 321 322 323 324 325 326 327 328 329 330 331 332 333 334 335 336 337 338 339 340 341 342 343 344 345 346 347 348 349 350 351 352 353 354 355 356 357 358 359 360 361 362 363 364 365 366 367 368 369 370 371 372 373 374 375 376 377 378 379 380 381 382 383 384 385 386 387 388 389 390 391 392 393 394 395 396 397 398 399 400 401 402 403 404 405 406 407 408 409 410 411 412 413 414 415 416 417 418 419 420 421 422 423 424 425 426 427 428 429 430 431 432 433 434 435 436 437 438 439 440 441 442 443 444 445 446 447 448 449
;

param: WG lp wp hp :=
   1 500.0 10.3 10.3 11.5
   2 500.0 10.3 10.3 11.5
   3 500.0 10.3 10.3 11.5
   4 500.0 10.3 10.3 11.5
   5 500.0 10.3 10.3 11.5
   6 500.0 10.3 10.3 11.5
   7 500.0 10.3 10.3 11.5
   8 500.0 10.3 10.3 11.5
   9 500.0 10.3 10.3 11.5
   10 500.0 10.3 10.3 11.5
   11 500.0 10.3 10.3 11.5
   12 500.0 10.3 10.3 11.5
   13 500.0 10.3 10.3 11.5
   14 500.0 10.3 10.3 11.5
   15 500.0 10.3 10.3 11.5
   16 500.0 10.3 10.3 11.5
   17 500.0 10.3 10.3 11.5
   18 500.0 10.3 10.3 11.5
   19 500.0 10.3 10.3 11.5
   20 500.0 10.3 10.3 11.5
   21 500.0 10.3 10.3 11.5
   22 500.0 10.3 10.3 11.5
   23 500.0 10.3 10.3 11.5
   24 500.0 10.3 10.3 11.5
   25 1000.0 13.0 13.0 16.5
   26 1000.0 13.0 13.0 16.5
   27 1000.0 13.0 13.0 16.5
   28 1000.0 13.0 13.0 16.5
   29 1000.0 13.0 13.0 16.5
   30 1000.0 13.0 13.0 16.5
   31 1000.0 13.0 13.0 16.5
   32 1000.0 13.0 13.0 16.5
   33 1000.0 13.0 13.0 16.5
   34 1000.0 13.0 13.0 16.5
   35 1000.0 13.0 13.0 16.5
   36 1000.0 13.0 13.0 16.5
   37 1000.0 13.0 13.0 16.5
   38 1000.0 13.0 13.0 16.5
   39 1000.0 13.0 13.0 16.5
   40 1000.0 13.0 13.0 16.5
   41 1000.0 13.0 13.0 16.5
   42 1000.0 13.0 13.0 16.5
   43 1000.0 13.0 13.0 16.5
   44 1000.0 13.0 13.0 16.5
   45 1000.0 13.0 13.0 16.5
   46 1000.0 13.0 13.0 16.5
   47 1000.0 13.0 13.0 16.5
   48 1000.0 13.0 13.0 16.5
   49 220.0 18.5 15.0 5.0
   50 220.0 18.5 15.0 5.0
   51 220.0 18.5 15.0 5.0
   52 220.0 18.5 15.0 5.0
   53 220.0 18.5 15.0 5.0
   54 220.0 18.5 15.0 5.0
   55 220.0 18.5 15.0 5.0
   56 220.0 18.5 15.0 5.0
   57 220.0 18.5 15.0 5.0
   58 220.0 18.5 15.0 5.0
   59 220.0 18.5 15.0 5.0
   60 220.0 18.5 15.0 5.0
   61 220.0 18.5 15.0 5.0
   62 220.0 18.5 15.0 5.0
   63 220.0 18.5 15.0 5.0
   64 1100.0 12.7 12.7 16.3
   65 1100.0 12.7 12.7 16.3
   66 1100.0 12.7 12.7 16.3
   67 1100.0 12.7 12.7 16.3
   68 1100.0 12.7 12.7 16.3
   69 1100.0 12.7 12.7 16.3
   70 1100.0 12.7 12.7 16.3
   71 1100.0 12.7 12.7 16.3
   72 1100.0 12.7 12.7 16.3
   73 1100.0 12.7 12.7 16.3
   74 1100.0 12.7 12.7 16.3
   75 1100.0 12.7 12.7 16.3
   76 1100.0 12.7 12.7 16.3
   77 1100.0 12.7 12.7 16.3
   78 1100.0 12.7 12.7 16.3
   79 1100.0 12.7 12.7 16.3
   80 1100.0 12.7 12.7 16.3
   81 1100.0 12.7 12.7 16.3
   82 1100.0 12.7 12.7 16.3
   83 1100.0 12.7 12.7 16.3
   84 1100.0 12.7 12.7 16.3
   85 1100.0 12.7 12.7 16.3
   86 1100.0 12.7 12.7 16.3
   87 1100.0 12.7 12.7 16.3
   88 1100.0 12.7 12.7 16.3
   89 1100.0 12.7 12.7 16.3
   90 1100.0 12.7 12.7 16.3
   91 1100.0 12.7 12.7 16.3
   92 1100.0 12.7 12.7 16.3
   93 1100.0 12.7 12.7 16.3
   94 1100.0 12.7 12.7 16.3
   95 1100.0 12.7 12.7 16.3
   96 1100.0 12.7 12.7 16.3
   97 1100.0 12.7 12.7 16.3
   98 1100.0 12.7 12.7 16.3
   99 1100.0 12.7 12.7 16.3
   100 400.0 10.0 10.0 11.4
   101 400.0 10.0 10.0 11.4
   102 400.0 10.0 10.0 11.4
   103 400.0 10.0 10.0 11.4
   104 400.0 10.0 10.0 11.4
   105 400.0 10.0 10.0 11.4
   106 400.0 10.0 10.0 11.4
   107 400.0 10.0 10.0 11.4
   108 400.0 10.0 10.0 11.4
   109 400.0 10.0 10.0 11.4
   110 400.0 10.0 10.0 11.4
   111 400.0 10.0 10.0 11.4
   112 400.0 10.0 10.0 11.4
   113 400.0 10.0 10.0 11.4
   114 400.0 10.0 10.0 11.4
   115 400.0 10.0 10.0 11.4
   116 400.0 10.0 10.0 11.4
   117 400.0 10.0 10.0 11.4
   118 400.0 10.0 10.0 11.4
   119 400.0 10.0 10.0 11.4
   120 400.0 10.0 10.0 11.4
   121 400.0 10.0 10.0 11.4
   122 400.0 10.0 10.0 11.4
   123 400.0 10.0 10.0 11.4
   124 510.0 10.4 10.4 14.1
   125 510.0 10.4 10.4 14.1
   126 510.0 10.4 10.4 14.1
   127 510.0 10.4 10.4 14.1
   128 510.0 10.4 10.4 14.1
   129 510.0 10.4 10.4 14.1
   130 510.0 10.4 10.4 14.1
   131 510.0 10.4 10.4 14.1
   132 510.0 10.4 10.4 14.1
   133 510.0 10.4 10.4 14.1
   134 510.0 10.4 10.4 14.1
   135 510.0 10.4 10.4 14.1
   136 997.0 12.7 12.7 16.5
   137 997.0 12.7 12.7 16.5
   138 997.0 12.7 12.7 16.5
   139 997.0 12.7 12.7 16.5
   140 997.0 12.7 12.7 16.5
   141 997.0 12.7 12.7 16.5
   142 997.0 12.7 12.7 16.5
   143 997.0 12.7 12.7 16.5
   144 997.0 12.7 12.7 16.5
   145 997.0 12.7 12.7 16.5
   146 997.0 12.7 12.7 16.5
   147 997.0 12.7 12.7 16.5
   148 510.0 10.4 10.4 14.1
   149 510.0 10.4 10.4 14.1
   150 510.0 10.4 10.4 14.1
   151 510.0 10.4 10.4 14.1
   152 510.0 10.4 10.4 14.1
   153 510.0 10.4 10.4 14.1
   154 510.0 10.4 10.4 14.1
   155 510.0 10.4 10.4 14.1
   156 510.0 10.4 10.4 14.1
   157 510.0 10.4 10.4 14.1
   158 510.0 10.4 10.4 14.1
   159 510.0 10.4 10.4 14.1
   160 500.0 10.0 10.0 11.5
   161 500.0 10.0 10.0 11.5
   162 500.0 10.0 10.0 11.5
   163 500.0 10.0 10.0 11.5
   164 500.0 10.0 10.0 11.5
   165 500.0 10.0 10.0 11.5
   166 500.0 10.0 10.0 11.5
   167 500.0 10.0 10.0 11.5
   168 500.0 10.0 10.0 11.5
   169 500.0 10.0 10.0 11.5
   170 500.0 10.0 10.0 11.5
   171 500.0 10.0 10.0 11.5
   172 500.0 10.0 10.0 11.5
   173 500.0 10.0 10.0 11.5
   174 500.0 10.0 10.0 11.5
   175 500.0 10.0 10.0 11.5
   176 500.0 10.0 10.0 11.5
   177 500.0 10.0 10.0 11.5
   178 500.0 10.0 10.0 11.5
   179 500.0 10.0 10.0 11.5
   180 500.0 10.0 10.0 11.5
   181 500.0 10.0 10.0 11.5
   182 500.0 10.0 10.0 11.5
   183 500.0 10.0 10.0 11.5
   184 2040.0 29.0 14.0 22.0
   185 2040.0 29.0 14.0 22.0
   186 2040.0 29.0 14.0 22.0
   187 2040.0 29.0 14.0 22.0
   188 2040.0 29.0 14.0 22.0
   189 2040.0 29.0 14.0 22.0
   190 2040.0 29.0 14.0 22.0
   191 2040.0 29.0 14.0 22.0
   192 2040.0 29.0 14.0 22.0
   193 2040.0 29.0 14.0 22.0
   194 2040.0 29.0 14.0 22.0
   195 2040.0 29.0 14.0 22.0
   196 2040.0 29.0 14.0 22.0
   197 2040.0 29.0 14.0 22.0
   198 2040.0 29.0 14.0 22.0
   199 2040.0 29.0 14.0 22.0
   200 2040.0 29.0 14.0 22.0
   201 2040.0 29.0 14.0 22.0
   202 2040.0 29.0 14.0 22.0
   203 2040.0 29.0 14.0 22.0
   204 2040.0 29.0 14.0 22.0
   205 2040.0 29.0 14.0 22.0
   206 2040.0 29.0 14.0 22.0
   207 2040.0 29.0 14.0 22.0
   208 2040.0 29.0 14.0 22.0
   209 2040.0 29.0 14.0 22.0
   210 2040.0 29.0 14.0 22.0
   211 2040.0 29.0 14.0 22.0
   212 2040.0 29.0 14.0 22.0
   213 2040.0 29.0 14.0 22.0
   214 2040.0 29.0 14.0 22.0
   215 2040.0 29.0 14.0 22.0
   216 2040.0 29.0 14.0 22.0
   217 2040.0 29.0 14.0 22.0
   218 2040.0 29.0 14.0 22.0
   219 2040.0 29.0 14.0 22.0
   220 2040.0 29.0 14.0 22.0
   221 2040.0 29.0 14.0 22.0
   222 2040.0 29.0 14.0 22.0
   223 2040.0 29.0 14.0 22.0
   224 2040.0 29.0 14.0 22.0
   225 2040.0 29.0 14.0 22.0
   226 2040.0 29.0 14.0 22.0
   227 2040.0 29.0 14.0 22.0
   228 2040.0 29.0 14.0 22.0
   229 2040.0 29.0 14.0 22.0
   230 2040.0 29.0 14.0 22.0
   231 2040.0 29.0 14.0 22.0
   232 2040.0 29.0 14.0 22.0
   233 2040.0 29.0 14.0 22.0
   234 2040.0 29.0 14.0 22.0
   235 2040.0 29.0 14.0 22.0
   236 2040.0 29.0 14.0 22.0
   237 2040.0 29.0 14.0 22.0
   238 2040.0 29.0 14.0 22.0
   239 2040.0 29.0 14.0 22.0
   240 2040.0 29.0 14.0 22.0
   241 2040.0 29.0 14.0 22.0
   242 2040.0 29.0 14.0 22.0
   243 2040.0 29.0 14.0 22.0
   244 2040.0 29.0 14.0 22.0
   245 2040.0 29.0 14.0 22.0
   246 2040.0 29.0 14.0 22.0
   247 2040.0 29.0 14.0 22.0
   248 2040.0 29.0 14.0 22.0
   249 2040.0 29.0 14.0 22.0
   250 2040.0 29.0 14.0 22.0
   251 2040.0 29.0 14.0 22.0
   252 2040.0 29.0 14.0 22.0
   253 2040.0 29.0 14.0 22.0
   254 2040.0 29.0 14.0 22.0
   255 2040.0 29.0 14.0 22.0
   256 2040.0 29.0 14.0 22.0
   257 2040.0 29.0 14.0 22.0
   258 2040.0 29.0 14.0 22.0
   259 2040.0 29.0 14.0 22.0
   260 2040.0 29.0 14.0 22.0
   261 2040.0 29.0 14.0 22.0
   262 2040.0 29.0 14.0 22.0
   263 2040.0 29.0 14.0 22.0
   264 300.0 5.0 15.0 18.0
   265 300.0 5.0 15.0 18.0
   266 300.0 5.0 15.0 18.0
   267 300.0 5.0 15.0 18.0
   268 300.0 5.0 15.0 18.0
   269 300.0 5.0 15.0 18.0
   270 300.0 5.0 15.0 18.0
   271 300.0 5.0 15.0 18.0
   272 300.0 5.0 15.0 18.0
   273 300.0 5.0 15.0 18.0
   274 300.0 5.0 15.0 18.0
   275 300.0 5.0 15.0 18.0
   276 300.0 5.0 15.0 18.0
   277 300.0 5.0 15.0 18.0
   278 300.0 5.0 15.0 18.0
   279 300.0 5.0 15.0 18.0
   280 300.0 5.0 15.0 18.0
   281 300.0 5.0 15.0 18.0
   282 300.0 5.0 15.0 18.0
   283 300.0 5.0 15.0 18.0
   284 300.0 5.0 15.0 18.0
   285 300.0 5.0 15.0 18.0
   286 300.0 5.0 15.0 18.0
   287 300.0 5.0 15.0 18.0
   288 300.0 5.0 15.0 18.0
   289 300.0 5.0 15.0 18.0
   290 300.0 5.0 15.0 18.0
   291 300.0 5.0 15.0 18.0
   292 300.0 5.0 15.0 18.0
   293 300.0 5.0 15.0 18.0
   294 1000.0 13.0 13.0 16.0
   295 1000.0 13.0 13.0 16.0
   296 1000.0 13.0 13.0 16.0
   297 1000.0 13.0 13.0 16.0
   298 1000.0 13.0 13.0 16.0
   299 1000.0 13.0 13.0 16.0
   300 1000.0 13.0 13.0 16.0
   301 1000.0 13.0 13.0 16.0
   302 1000.0 13.0 13.0 16.0
   303 1000.0 13.0 13.0 16.0
   304 1000.0 13.0 13.0 16.0
   305 1000.0 13.0 13.0 16.0
   306 1000.0 13.0 13.0 16.0
   307 1000.0 13.0 13.0 16.0
   308 1000.0 13.0 13.0 16.0
   309 1000.0 13.0 13.0 16.0
   310 1000.0 13.0 13.0 16.0
   311 1000.0 13.0 13.0 16.0
   312 1000.0 13.0 13.0 16.0
   313 1000.0 13.0 13.0 16.0
   314 1000.0 13.0 13.0 16.0
   315 1000.0 13.0 13.0 16.0
   316 1000.0 13.0 13.0 16.0
   317 1000.0 13.0 13.0 16.0
   318 1000.0 13.0 13.0 16.0
   319 1000.0 13.0 13.0 16.0
   320 1000.0 13.0 13.0 16.0
   321 1000.0 13.0 13.0 16.0
   322 1000.0 13.0 13.0 16.0
   323 1000.0 13.0 13.0 16.0
   324 1000.0 13.0 13.0 16.0
   325 1000.0 13.0 13.0 16.0
   326 1000.0 13.0 13.0 16.0
   327 1000.0 13.0 13.0 16.0
   328 1000.0 13.0 13.0 16.0
   329 1000.0 13.0 13.0 16.0
   330 410.0 10.0 10.0 11.5
   331 410.0 10.0 10.0 11.5
   332 410.0 10.0 10.0 11.5
   333 410.0 10.0 10.0 11.5
   334 410.0 10.0 10.0 11.5
   335 410.0 10.0 10.0 11.5
   336 410.0 10.0 10.0 11.5
   337 410.0 10.0 10.0 11.5
   338 410.0 10.0 10.0 11.5
   339 410.0 10.0 10.0 11.5
   340 410.0 10.0 10.0 11.5
   341 410.0 10.0 10.0 11.5
   342 410.0 10.0 10.0 11.5
   343 410.0 10.0 10.0 11.5
   344 410.0 10.0 10.0 11.5
   345 410.0 10.0 10.0 11.5
   346 410.0 10.0 10.0 11.5
   347 410.0 10.0 10.0 11.5
   348 410.0 10.0 10.0 11.5
   349 410.0 10.0 10.0 11.5
   350 410.0 10.0 10.0 11.5
   351 410.0 10.0 10.0 11.5
   352 410.0 10.0 10.0 11.5
   353 410.0 10.0 10.0 11.5
   354 1100.0 12.8 12.8 16.2
   355 1100.0 12.8 12.8 16.2
   356 1100.0 12.8 12.8 16.2
   357 1100.0 12.8 12.8 16.2
   358 1100.0 12.8 12.8 16.2
   359 1100.0 12.8 12.8 16.2
   360 1100.0 12.8 12.8 16.2
   361 1100.0 12.8 12.8 16.2
   362 1100.0 12.8 12.8 16.2
   363 1100.0 12.8 12.8 16.2
   364 1100.0 12.8 12.8 16.2
   365 1100.0 12.8 12.8 16.2
   366 1100.0 12.8 12.8 16.2
   367 1100.0 12.8 12.8 16.2
   368 1100.0 12.8 12.8 16.2
   369 1100.0 12.8 12.8 16.2
   370 1100.0 12.8 12.8 16.2
   371 1100.0 12.8 12.8 16.2
   372 1100.0 12.8 12.8 16.2
   373 1100.0 12.8 12.8 16.2
   374 1100.0 12.8 12.8 16.2
   375 1100.0 12.8 12.8 16.2
   376 1100.0 12.8 12.8 16.2
   377 1100.0 12.8 12.8 16.2
   378 1100.0 12.8 12.8 16.2
   379 1100.0 12.8 12.8 16.2
   380 1100.0 12.8 12.8 16.2
   381 1100.0 12.8 12.8 16.2
   382 1100.0 12.8 12.8 16.2
   383 1100.0 12.8 12.8 16.2
   384 1100.0 12.8 12.8 16.2
   385 1100.0 12.8 12.8 16.2
   386 1100.0 12.8 12.8 16.2
   387 1100.0 12.8 12.8 16.2
   388 1100.0 12.8 12.8 16.2
   389 1100.0 12.8 12.8 16.2
   390 1100.0 12.8 12.8 16.2
   391 1100.0 12.8 12.8 16.2
   392 1100.0 12.8 12.8 16.2
   393 1100.0 12.8 12.8 16.2
   394 1100.0 12.8 12.8 16.2
   395 1100.0 12.8 12.8 16.2
   396 1100.0 12.8 12.8 16.2
   397 1100.0 12.8 12.8 16.2
   398 1100.0 12.8 12.8 16.2
   399 1100.0 12.8 12.8 16.2
   400 1100.0 12.8 12.8 16.2
   401 1100.0 12.8 12.8 16.2
   402 1100.0 12.8 12.8 16.2
   403 1100.0 12.8 12.8 16.2
   404 1100.0 12.8 12.8 16.2
   405 1100.0 12.8 12.8 16.2
   406 1100.0 12.8 12.8 16.2
   407 1100.0 12.8 12.8 16.2
   408 1100.0 12.8 12.8 16.2
   409 1100.0 12.8 12.8 16.2
   410 1100.0 12.8 12.8 16.2
   411 1100.0 12.8 12.8 16.2
   412 1100.0 12.8 12.8 16.2
   413 1100.0 12.8 12.8 16.2
   414 1100.0 12.8 12.8 16.2
   415 1100.0 12.8 12.8 16.2
   416 1100.0 12.8 12.8 16.2
   417 1100.0 12.8 12.8 16.2
   418 1100.0 12.8 12.8 16.2
   419 1100.0 12.8 12.8 16.2
   420 1100.0 12.8 12.8 16.2
   421 1100.0 12.8 12.8 16.2
   422 1100.0 12.8 12.8 16.2
   423 1100.0 12.8 12.8 16.2
   424 1100.0 12.8 12.8 16.2
   425 1100.0 12.8 12.8 16.2
   426 1100.0 12.8 12.8 16.2
   427 1100.0 12.8 12.8 16.2
   428 1100.0 12.8 12.8 16.2
   429 1100.0 12.8 12.8 16.2
   430 1100.0 12.8 12.8 16.2
   431 1100.0 12.8 12.8 16.2
   432 1100.0 12.8 12.8 16.2
   433 1100.0 12.8 12.8 16.2
   434 1100.0 12.8 12.8 16.2
   435 1100.0 12.8 12.8 16.2
   436 1100.0 12.8 12.8 16.2
   437 1100.0 12.8 12.8 16.2
   438 1100.0 12.8 12.8 16.2
   439 1100.0 12.8 12.8 16.2
   440 1100.0 12.8 12.8 16.2
   441 1100.0 12.8 12.8 16.2
   442 1100.0 12.8 12.8 16.2
   443 1100.0 12.8 12.8 16.2
   444 1100.0 12.8 12.8 16.2
   445 1100.0 12.8 12.8 16.2
   446 1100.0 12.8 12.8 16.2
   447 1100.0 12.8 12.8 16.2
   448 1100.0 12.8 12.8 16.2
   449 1100.0 12.8 12.8 16.2
;

set B :=
1 2 3 4 5 6 7 8 9 10 11 12 13 14 15 16 17 18 19 20 21 22 23 24 25 26 27 28 29 30 31 32 33 34 35 36 37 38 39 40
;

param: LB WB HB CB alpha :=
   1 28 15 15 6300 32
   2 28 15 15 6300 32
   3 28 15 15 6300 32
   4 28 15 15 6300 32
   5 28 15 15 6300 32
   6 28 15 15 6300 32
   7 28 15 15 6300 32
   8 28 15 15 6300 32
   9 28 15 15 6300 32
   10 28 15 15 6300 32
   11 42 32 26 34944 94
   12 42 32 26 34944 94
   13 42 32 26 34944 94
   14 42 32 26 34944 94
   15 42 32 26 34944 94
   16 42 32 26 34944 94
   17 42 32 26 34944 94
   18 42 32 26 34944 94
   19 42 32 26 34944 94
   20 42 32 26 34944 94
   21 45.7 45.7 40.6 84793 156
   22 45.7 45.7 40.6 84793 156
   23 45.7 45.7 40.6 84793 156
   24 45.7 45.7 40.6 84793 156
   25 45.7 45.7 40.6 84793 156
   26 45.7 45.7 40.6 84793 156
   27 45.7 45.7 40.6 84793 156
   28 45.7 45.7 40.6 84793 156
   29 45.7 45.7 40.6 84793 156
   30 45.7 45.7 40.6 84793 156
   31 61 46 61 171166 469
   32 61 46 61 171166 469
   33 61 46 61 171166 469
   34 61 46 61 171166 469
   35 61 46 61 171166 469
   36 61 46 61 171166 469
   37 61 46 61 171166 469
   38 61 46 61 171166 469
   39 61 46 61 171166 469
   40 61 46 61 171166 469
;


param M     := 1000000; #large constant
param alpha_supp := 1;# minimum percentage of its bottom face supported by other items' top faces
